p edge 30 111 20
v 2 5 7
v 2 2 29
v 2 6 12
v 1 16
v 1 25
v 3 11 17 22
v 1 18
v 2 8 30
v 1 27
v 2 10 28
v 1 4
v 2 21 23
v 1 20
v 2 3 13
v 1 1
v 1 24
v 2 15 26
v 1 19
v 1 14
v 1 9
e 1 5
e 1 8
e 1 12
e 1 13
e 1 14
e 1 15
e 2 6
e 2 12
e 2 14
e 2 19
e 3 4
e 3 6
e 3 12
e 3 23
e 4 5
e 4 7
e 4 22
e 4 25
e 5 6
e 5 10
e 5 12
e 5 17
e 5 22
e 5 25
e 6 14
e 6 18
e 6 21
e 6 22
e 6 25
e 7 11
e 7 12
e 7 19
e 7 23
e 7 24
e 7 27
e 7 29
e 7 30
e 8 12
e 8 14
e 8 16
e 8 18
e 8 19
e 8 26
e 8 27
e 8 28
e 8 29
e 9 11
e 9 14
e 9 16
e 9 26
e 9 29
e 9 30
e 10 15
e 10 17
e 10 19
e 10 24
e 10 29
e 11 14
e 11 15
e 11 17
e 11 18
e 11 19
e 11 21
e 11 26
e 11 30
e 12 17
e 12 19
e 12 22
e 12 26
e 13 14
e 13 20
e 13 24
e 13 27
e 13 29
e 14 15
e 14 25
e 14 26
e 14 28
e 15 16
e 15 18
e 15 24
e 15 25
e 15 26
e 16 20
e 17 24
e 17 25
e 17 30
e 18 22
e 18 25
e 19 20
e 19 22
e 19 23
e 19 26
e 19 27
e 19 29
e 20 21
e 20 22
e 20 24
e 20 28
e 21 26
e 21 27
e 21 28
e 22 28
e 23 25
e 23 28
e 23 29
e 23 30
e 24 26
e 25 26
e 25 29
e 27 28
